     Program PWSCF v.6.4.1 starts on 19Feb2020 at 18:35:30

     Waiting for input...
     Reading input from standard input

     Current dimensions of program PWSCF are:
     Max number of different atomic species (ntypx) = 10
     Max number of k-points (npk) =  40000
     Max angular momentum in pseudopotentials (lmaxx) =  3
               file Co.pz-nd-rrkjus.UPF: wavefunction(s)  4S 3D renormalized

     Subspace diagonalization in iterative solution of the eigenvalue problem:
     a serial algorithm will be used

     bravais-lattice index     =            4
     lattice parameter (alat)  =       4.6200  a.u.
     unit-cell volume          =     141.7636 (a.u.)^3
     number of atoms/cell      =            2
     number of atomic types    =            1
     number of electrons       =        18.00
     number of Kohn-Sham states=           13
     kinetic-energy cutoff     =      30.0000  Ry
     charge density cutoff     =     250.0000  Ry
     convergence threshold     =      1.0E-08
     mixing beta               =       0.7000
     number of iterations used =            8  plain     mixing
     Exchange-correlation      =  SLA  PZ   NOGX NOGC ( 1  1  0  0 0 0)

     celldm(1)=   4.620000  celldm(2)=   0.000000  celldm(3)=   1.660000
     celldm(4)=   0.000000  celldm(5)=   0.000000  celldm(6)=   0.000000

     crystal axes: (cart. coord. in units of alat)
               a(1) = (   1.000000   0.000000   0.000000 )
               a(2) = (  -0.500000   0.866025   0.000000 )
               a(3) = (   0.000000   0.000000   1.660000 )

     reciprocal axes: (cart. coord. in units 2 pi/alat)
               b(1) = (  1.000000  0.577350 -0.000000 )
               b(2) = (  0.000000  1.154701  0.000000 )
               b(3) = (  0.000000 -0.000000  0.602410 )

     PseudoPot. # 1 for Co read from file:
     ./Co.pz-nd-rrkjus.UPF
     MD5 check sum: c80159f6ca3a93d3df3cfc6468bb3c3d
     Pseudo is Ultrasoft + core correction, Zval =  9.0
     Generated by new atomic code, or converted to UPF format
     Using radial grid of  961 points,  6 beta functions with:
                l(1) =   0
                l(2) =   0
                l(3) =   1
                l(4) =   1
                l(5) =   2
                l(6) =   2
     Q(r) pseudized with 0 coefficients

     atomic species   valence    mass     pseudopotential
        Co             9.00    58.93300     Co( 1.00)

     Starting magnetic structure
     atomic species   magnetization
        Co           0.700

     24 Sym. Ops., with inversion, found (12 have fractional translation)

   Cartesian axes

     site n.     atom                  positions (alat units)
         1           Co  tau(   1) = (  -0.0000000   0.5773503   0.4150000  )
         2           Co  tau(   2) = (   0.5000000   0.2886751   1.2450000  )

     number of k points=    76  Marzari-Vanderbilt smearing, width (Ry)=  0.0300
                       cart. coord. in units 2pi/alat
        k(    1) = (   0.0000000   0.0000000   0.0000000), wk =   0.0011574
        k(    2) = (   0.0000000   0.0000000   0.1004016), wk =   0.0023148
        k(    3) = (   0.0000000   0.0000000   0.2008032), wk =   0.0023148
        k(    4) = (   0.0000000   0.0000000  -0.3012048), wk =   0.0011574
        k(    5) = (   0.0000000   0.0962250   0.0000000), wk =   0.0069444
        k(    6) = (   0.0000000   0.0962250   0.1004016), wk =   0.0138889
        k(    7) = (   0.0000000   0.0962250   0.2008032), wk =   0.0138889
        k(    8) = (   0.0000000   0.0962250  -0.3012048), wk =   0.0069444
        k(    9) = (   0.0000000   0.1924501   0.0000000), wk =   0.0069444
        k(   10) = (   0.0000000   0.1924501   0.1004016), wk =   0.0138889
        k(   11) = (   0.0000000   0.1924501   0.2008032), wk =   0.0138889
        k(   12) = (   0.0000000   0.1924501  -0.3012048), wk =   0.0069444
        k(   13) = (   0.0000000   0.2886751   0.0000000), wk =   0.0069444
        k(   14) = (   0.0000000   0.2886751   0.1004016), wk =   0.0138889
        k(   15) = (   0.0000000   0.2886751   0.2008032), wk =   0.0138889
        k(   16) = (   0.0000000   0.2886751  -0.3012048), wk =   0.0069444
        k(   17) = (   0.0000000   0.3849002   0.0000000), wk =   0.0069444
        k(   18) = (   0.0000000   0.3849002   0.1004016), wk =   0.0138889
        k(   19) = (   0.0000000   0.3849002   0.2008032), wk =   0.0138889
        k(   20) = (   0.0000000   0.3849002  -0.3012048), wk =   0.0069444
        k(   21) = (   0.0000000   0.4811252   0.0000000), wk =   0.0069444
        k(   22) = (   0.0000000   0.4811252   0.1004016), wk =   0.0138889
        k(   23) = (   0.0000000   0.4811252   0.2008032), wk =   0.0138889
        k(   24) = (   0.0000000   0.4811252  -0.3012048), wk =   0.0069444
        k(   25) = (   0.0000000  -0.5773503   0.0000000), wk =   0.0034722
        k(   26) = (   0.0000000  -0.5773503   0.1004016), wk =   0.0069444
        k(   27) = (   0.0000000  -0.5773503   0.2008032), wk =   0.0069444
        k(   28) = (   0.0000000  -0.5773503  -0.3012048), wk =   0.0034722
        k(   29) = (   0.0833333   0.1443376   0.0000000), wk =   0.0069444
        k(   30) = (   0.0833333   0.1443376   0.1004016), wk =   0.0138889
        k(   31) = (   0.0833333   0.1443376   0.2008032), wk =   0.0138889
        k(   32) = (   0.0833333   0.1443376  -0.3012048), wk =   0.0069444
        k(   33) = (   0.0833333   0.2405626   0.0000000), wk =   0.0138889
        k(   34) = (   0.0833333   0.2405626   0.1004016), wk =   0.0277778
        k(   35) = (   0.0833333   0.2405626   0.2008032), wk =   0.0277778
        k(   36) = (   0.0833333   0.2405626  -0.3012048), wk =   0.0138889
        k(   37) = (   0.0833333   0.3367877   0.0000000), wk =   0.0138889
        k(   38) = (   0.0833333   0.3367877   0.1004016), wk =   0.0277778
        k(   39) = (   0.0833333   0.3367877   0.2008032), wk =   0.0277778
        k(   40) = (   0.0833333   0.3367877  -0.3012048), wk =   0.0138889
        k(   41) = (   0.0833333   0.4330127   0.0000000), wk =   0.0138889
        k(   42) = (   0.0833333   0.4330127   0.1004016), wk =   0.0277778
        k(   43) = (   0.0833333   0.4330127   0.2008032), wk =   0.0277778
        k(   44) = (   0.0833333   0.4330127  -0.3012048), wk =   0.0138889
        k(   45) = (   0.0833333   0.5292377   0.0000000), wk =   0.0138889
        k(   46) = (   0.0833333   0.5292377   0.1004016), wk =   0.0277778
        k(   47) = (   0.0833333   0.5292377   0.2008032), wk =   0.0277778
        k(   48) = (   0.0833333   0.5292377  -0.3012048), wk =   0.0138889
        k(   49) = (   0.1666667   0.2886751   0.0000000), wk =   0.0069444
        k(   50) = (   0.1666667   0.2886751   0.1004016), wk =   0.0138889
        k(   51) = (   0.1666667   0.2886751   0.2008032), wk =   0.0138889
        k(   52) = (   0.1666667   0.2886751  -0.3012048), wk =   0.0069444
        k(   53) = (   0.1666667   0.3849002   0.0000000), wk =   0.0138889
        k(   54) = (   0.1666667   0.3849002   0.1004016), wk =   0.0277778
        k(   55) = (   0.1666667   0.3849002   0.2008032), wk =   0.0277778
        k(   56) = (   0.1666667   0.3849002  -0.3012048), wk =   0.0138889
        k(   57) = (   0.1666667   0.4811252   0.0000000), wk =   0.0138889
        k(   58) = (   0.1666667   0.4811252   0.1004016), wk =   0.0277778
        k(   59) = (   0.1666667   0.4811252   0.2008032), wk =   0.0277778
        k(   60) = (   0.1666667   0.4811252  -0.3012048), wk =   0.0138889
        k(   61) = (   0.1666667   0.5773503   0.0000000), wk =   0.0069444
        k(   62) = (   0.1666667   0.5773503   0.1004016), wk =   0.0138889
        k(   63) = (   0.1666667   0.5773503   0.2008032), wk =   0.0138889
        k(   64) = (   0.1666667   0.5773503  -0.3012048), wk =   0.0069444
        k(   65) = (   0.2500000   0.4330127   0.0000000), wk =   0.0069444
        k(   66) = (   0.2500000   0.4330127   0.1004016), wk =   0.0138889
        k(   67) = (   0.2500000   0.4330127   0.2008032), wk =   0.0138889
        k(   68) = (   0.2500000   0.4330127  -0.3012048), wk =   0.0069444
        k(   69) = (   0.2500000   0.5292377   0.0000000), wk =   0.0138889
        k(   70) = (   0.2500000   0.5292377   0.1004016), wk =   0.0277778
        k(   71) = (   0.2500000   0.5292377   0.2008032), wk =   0.0277778
        k(   72) = (   0.2500000   0.5292377  -0.3012048), wk =   0.0138889
        k(   73) = (   0.3333333   0.5773503   0.0000000), wk =   0.0023148
        k(   74) = (   0.3333333   0.5773503   0.1004016), wk =   0.0046296
        k(   75) = (   0.3333333   0.5773503   0.2008032), wk =   0.0046296
        k(   76) = (   0.3333333   0.5773503  -0.3012048), wk =   0.0023148

     Check: negative core charge=   -0.000025

     Initial potential from superposition of free atoms

     starting charge   17.99923, renormalised to   18.00000
     Starting wfcs are   12 randomized atomic wfcs +    1 random wfcs

     Self-consistent Calculation

     iteration #  1     ecut=    30.00 Ry     beta= 0.70
     Davidson diagonalization with overlap
     ethr =  1.00E-02,  avg # of iterations =  3.4

     total energy              =    -147.90411460 Ry
     Harris-Foulkes estimate   =    -148.15795912 Ry
     estimated scf accuracy    <       1.19525041 Ry

     total magnetization       =     4.96 Bohr mag/cell
     absolute magnetization    =     4.97 Bohr mag/cell

[...]

     total energy              =    -148.44412762 Ry
     Harris-Foulkes estimate   =    -148.44412762 Ry
     estimated scf accuracy    <       0.00000018 Ry

[...]

     iteration #  8     ecut=    30.00 Ry     beta= 0.70
     Davidson diagonalization with overlap
     ethr =  9.93E-10,  avg # of iterations =  2.4

     Magnetic moment per site:
     atom:    1    charge:    7.6115    magn:    1.7095    constr:    0.0000
     atom:    2    charge:    7.6115    magn:    1.7095    constr:    0.0000

     End of self-consistent calculation

     Number of k-points >= 100: set verbosity='high' to print the bands.

     the Fermi energy is    14.3855 ev

!    total energy              =    -148.44412768 Ry
     Harris-Foulkes estimate   =    -148.44412767 Ry
     estimated scf accuracy    <          7.6E-09 Ry

     The total energy is the sum of the following terms:

     one-electron contribution =       8.64511349 Ry
     hartree contribution      =      20.84394475 Ry
     xc contribution           =     -64.88978505 Ry
     ewald contribution        =    -113.05221274 Ry
     smearing contrib. (-TS)   =       0.00881187 Ry

     total magnetization       =     3.31 Bohr mag/cell
     absolute magnetization    =     3.54 Bohr mag/cell

     convergence has been achieved in   8 iterations

     Forces acting on atoms (cartesian axes, Ry/au):

     atom    1 type  1   force =     0.00000000    0.00000000    0.00000000
     atom    2 type  1   force =     0.00000000    0.00000000    0.00000000

     Total force =     0.000000     Total SCF correction =     0.000000

     Computing stress (Cartesian axis) and pressure

          total   stress  (Ry/bohr**3)                   (kbar)     P= -108.37
  -0.00058757   0.00000000   0.00000000        -86.44      0.00      0.00
   0.00000000  -0.00058757  -0.00000000          0.00    -86.44     -0.00
   0.00000000   0.00000000  -0.00103500          0.00      0.00   -152.25

     Writing output data file Co.HCP.save/

     General routines

     Parallel routines

   This run was terminated on:  18:36:43  19Feb2020

   JOB DONE.