     Program PWSCF v.6.4.1 starts on 21Jan2020 at 19: 4: 8

     Reading input from germanium.in

     Current dimensions of program PWSCF are:
     Max number of different atomic species (ntypx) = 10
     Max number of k-points (npk) =  40000
     Max angular momentum in pseudopotentials (lmaxx) =  3
     Message from routine volume:
     axis vectors are left-handed

     IMPORTANT: XC functional enforced from input :
     Exchange-correlation      = PBE ( 1  4  3  4 0 0)
     Any further DFT definition will be discarded
     Please, verify this is what you really want

               file Ge.pbe-kjpaw.UPF: wavefunction(s)  4S renormalized

     Subspace diagonalization in iterative solution of the eigenvalue problem:
     a serial algorithm will be used

     Message from routine setup:
     DEPRECATED: symmetry with ibrav=0, use correct ibrav instead

     bravais-lattice index     =            0
     lattice parameter (alat)  =      10.6908  a.u.
     unit-cell volume          =     305.4751 (a.u.)^3
     number of atoms/cell      =            2
     number of atomic types    =            1
     number of electrons       =         8.00
     number of Kohn-Sham states=           10
     kinetic-energy cutoff     =      50.0000  Ry
     charge density cutoff     =     200.0000  Ry
     convergence threshold     =      1.0E-08
     mixing beta               =       0.7000
     number of iterations used =            8  plain     mixing
     Exchange-correlation      = PBE ( 1  4  3  4 0 0)

     celldm(1)=  10.690842  celldm(2)=   0.000000  celldm(3)=   0.000000
     celldm(4)=   0.000000  celldm(5)=   0.000000  celldm(6)=   0.000000

     crystal axes: (cart. coord. in units of alat)
               a(1) = (   0.500000   0.500000   0.000000 )
               a(2) = (   0.500000   0.000000   0.500000 )
               a(3) = (   0.000000   0.500000   0.500000 )

     reciprocal axes: (cart. coord. in units 2 pi/alat)
               b(1) = (  1.000000  1.000000 -1.000000 )
               b(2) = (  1.000000 -1.000000  1.000000 )
               b(3) = ( -1.000000  1.000000  1.000000 )

     PseudoPot. # 1 for Ge read from file:
     ./Ge.pbe-kjpaw.UPF
     MD5 check sum: fa6acec385508fbd41db1ad5f2fba766
     Pseudo is Projector augmented-wave + core cor, Zval =  4.0
     Generated using "atomic" code by A. Dal Corso (espresso distribution)
     Shape of augmentation charge: BESSEL
     Using radial grid of 1207 points,  4 beta functions with:
                l(1) =   0
                l(2) =   0
                l(3) =   1
                l(4) =   1
     Q(r) pseudized with 0 coefficients

     atomic species   valence    mass     pseudopotential
        Ge             4.00    72.63000     Ge( 1.00)

     48 Sym. Ops., with inversion, found (24 have fractional translation)

   Cartesian axes

     site n.     atom                  positions (alat units)
         1           Ge  tau(   1) = (   0.0000000   0.0000000   0.0000000  )
         2           Ge  tau(   2) = (   0.2500000   0.2500000   0.2500000  )

     number of k points=    28
                       cart. coord. in units 2pi/alat
        k(    1) = (   0.0833333   0.0833333   0.0833333), wk =   0.0185185
        k(    2) = (  -0.0833333   0.2500000   0.2500000), wk =   0.0555556
        k(    3) = (  -0.2500000   0.4166667   0.4166667), wk =   0.0555556
        k(    4) = (   0.5833333  -0.4166667  -0.4166667), wk =   0.0555556
        k(    5) = (   0.4166667  -0.2500000  -0.2500000), wk =   0.0555556
        k(    6) = (   0.2500000  -0.0833333  -0.0833333), wk =   0.0555556
        k(    7) = (   0.0833333   0.0833333   0.4166667), wk =   0.0555556
        k(    8) = (  -0.0833333   0.2500000   0.5833333), wk =   0.1111111
        k(    9) = (   0.7500000  -0.5833333  -0.2500000), wk =   0.1111111
        k(   10) = (   0.5833333  -0.4166667  -0.0833333), wk =   0.1111111
        k(   11) = (   0.4166667  -0.2500000   0.0833333), wk =   0.1111111
        k(   12) = (   0.0833333   0.0833333   0.7500000), wk =   0.0555556
        k(   13) = (   0.9166667  -0.7500000  -0.0833333), wk =   0.1111111
        k(   14) = (   0.7500000  -0.5833333   0.0833333), wk =   0.1111111
        k(   15) = (   0.5833333  -0.4166667   0.2500000), wk =   0.1111111
        k(   16) = (   0.0833333   0.0833333  -0.9166667), wk =   0.0555556
        k(   17) = (  -0.0833333   0.2500000  -0.7500000), wk =   0.1111111
        k(   18) = (   0.0833333   0.0833333  -0.5833333), wk =   0.0555556
        k(   19) = (   0.2500000   0.2500000   0.2500000), wk =   0.0185185
        k(   20) = (   0.0833333   0.4166667   0.4166667), wk =   0.0555556
        k(   21) = (   0.9166667  -0.4166667  -0.4166667), wk =   0.0555556
        k(   22) = (   0.7500000  -0.2500000  -0.2500000), wk =   0.0555556
        k(   23) = (   0.2500000   0.2500000   0.5833333), wk =   0.0555556
        k(   24) = (   1.0833333  -0.5833333  -0.2500000), wk =   0.1111111
        k(   25) = (   0.9166667  -0.4166667  -0.0833333), wk =   0.1111111
        k(   26) = (   0.2500000   0.2500000  -1.0833333), wk =   0.0555556
        k(   27) = (   0.4166667   0.4166667   0.4166667), wk =   0.0185185
        k(   28) = (   1.2500000  -0.4166667  -0.4166667), wk =   0.0555556

     Initial potential from superposition of free atoms

     starting charge    7.99847, renormalised to    8.00000

     negative rho (up, down):  2.080E-02 0.000E+00
     Starting wfcs are    8 randomized atomic wfcs +    2 random wfcs
     Checking if some PAW data can be deallocated...

     Self-consistent Calculation

     iteration #  1     ecut=    50.00 Ry     beta= 0.70
     Davidson diagonalization with overlap
     ethr =  1.00E-02,  avg # of iterations =  5.1

     Threshold (ethr) on eigenvalues was too large:
     Diagonalizing with lowered threshold

     Davidson diagonalization with overlap
     ethr =  4.43E-04,  avg # of iterations =  2.1

     negative rho (up, down):  4.217E-02 0.000E+00

     total energy              =    -328.23135496 Ry
     Harris-Foulkes estimate   =    -328.23941344 Ry
     estimated scf accuracy    <       0.03459066 Ry

[...]

     total energy              =    -328.23231438 Ry
     Harris-Foulkes estimate   =    -328.23231440 Ry
     estimated scf accuracy    <       0.00000005 Ry

     iteration #  6     ecut=    50.00 Ry     beta= 0.70
     Davidson diagonalization with overlap
     ethr =  6.82E-10,  avg # of iterations =  2.0

[...]

     End of self-consistent calculation

          k = 0.0833 0.0833 0.0833 (  1841 PWs)   bands (ev):

    -6.7633   4.3897   5.7353   5.7353   6.9409   8.7073   8.7073   8.8902
    12.9513  14.8104

          k =-0.0833 0.2500 0.2500 (  1832 PWs)   bands (ev):

[...]

          k =-0.0833 0.2500-0.7500 (  1818 PWs)   bands (ev):

[...]

          k = 1.2500-0.4167-0.4167 (  1818 PWs)   bands (ev):

    -4.5135  -1.6297   2.5936   4.1295   7.5682   9.8256  10.6472  13.6008
    14.6582  15.6827

     highest occupied, lowest unoccupied level (ev):     5.7353    6.1760

!    total energy              =    -328.23231439 Ry
     Harris-Foulkes estimate   =    -328.23231439 Ry
     estimated scf accuracy    <          4.1E-09 Ry

     total all-electron energy =     -8395.997073 Ry

     The total energy is the sum of the following terms:

     one-electron contribution =       5.49731770 Ry
     hartree contribution      =       1.14332567 Ry
     xc contribution           =     -32.33469161 Ry
     ewald contribution        =     -16.12385026 Ry
     one-center paw contrib.   =    -286.41441589 Ry

     convergence has been achieved in   6 iterations

     negative rho (up, down):  4.877E-02 0.000E+00

     Forces acting on atoms (cartesian axes, Ry/au):

     atom    1 type  1   force =     0.00000000    0.00000000    0.00000000
     atom    2 type  1   force =     0.00000000    0.00000000    0.00000000

     Total force =     0.000000     Total SCF correction =     0.000000

     Computing stress (Cartesian axis) and pressure

     negative rho (up, down):  4.877E-02 0.000E+00
          total   stress  (Ry/bohr**3)                   (kbar)     P=   42.47
   0.00028869   0.00000000   0.00000000         42.47      0.00      0.00
   0.00000000   0.00028869   0.00000000          0.00     42.47      0.00
   0.00000000   0.00000000   0.00028869          0.00      0.00     42.47

     Writing output data file germanium.save/

     General routines

     Parallel routines

   This run was terminated on:  19: 4:21  21Jan2020

   JOB DONE.